22 4
16 66 72 60 36 53 42 45 98 44 81 18 20 38 47 91 54 52 31 17 23 78
96 27 27 85 85 85 45 60 51 66 100 18 57 11 49 68 66 52 28 73 99 79
99 82 81 48 100 41 17 15 67 61 68 62 46 59 30 19 19 39 21 84 99 39
47 38 25 63 40 80 80 40 37 58 68 17 34 80 27 37 90 44 25 77 60 86
